language ESSENCE' 1.0

letting fixed be 
[
    [2,9,0,0,0,0,8,3,0],
    [0,0,0,0,2,0,9,7,0],
    [0,0,0,1,0,9,4,0,2],
    [8,4,5,7,6,1,2,9,3],
    [6,0,0,0,0,0,5,4,7],
    [0,0,9,0,4,5,0,0,8],
    [9,0,3,4,0,7,0,0,0],
    [0,6,0,0,3,0,7,0,9],
    [0,5,0,0,0,0,3,8,4]
]